
Gurobi 9.1.0 (win64) logging started Tue Dec 15 14:47:42 2020

Changed value of parameter LogFile to logs/iteration9
   Prev:   Default: 
Gurobi Optimizer version 9.1.0 build v9.1.0rc0 (win64)
Thread count: 4 physical cores, 8 logical processors, using up to 8 threads
Optimize a model with 136 rows, 536 columns and 1989 nonzeros
Model fingerprint: 0x37a92232
Coefficient statistics:
  Matrix range     [1e+00, 1e+00]
  Objective range  [1e+03, 3e+03]
  Bounds range     [0e+00, 0e+00]
  RHS range        [1e+00, 1e+00]
Presolve removed 16 rows and 29 columns
Presolve time: 0.00s
Presolved: 120 rows, 507 columns, 1960 nonzeros

Iteration    Objective       Primal Inf.    Dual Inf.      Time
       0    2.4105333e+04   1.200000e+02   0.000000e+00      0s
     253    9.5914417e+04   0.000000e+00   0.000000e+00      0s

Solved in 253 iterations and 0.00 seconds
Optimal objective  9.591441667e+04

Solutionx[24] 1.000000 
x[27] 1.000000 
x[55] 1.000000 
x[64] 1.000000 
x[70] 1.000000 
x[72] 1.000000 
x[76] 1.000000 
x[77] 1.000000 
x[78] 1.000000 
x[82] 1.000000 
x[101] 1.000000 
x[118] 1.000000 
x[124] 1.000000 
x[128] 1.000000 
x[130] 1.000000 
x[131] 1.000000 
x[132] 1.000000 
x[134] 1.000000 
x[135] 1.000000 
x[436] 0.500000 
x[819] 0.500000 
x[821] 0.500000 
x[846] 0.500000 
x[1337] 0.500000 
x[1772] 1.000000 
x[2387] 1.000000 
x[2864] 0.500000 
x[2903] 0.500000 
x[2944] 0.500000 
x[10635] 0.500000 
x[19863] 1.000000 
x[21791] 1.000000 
x[29780] 0.500000 
x[9961] 1.000000 
x[10828] 1.000000 
x[3365] 1.000000 
x[18798] 1.000000 
x[30408] 1.000000 
x[16501] 1.000000 
x[10403] 1.000000 
x[10912] 1.000000 
x[21081] 1.000000 
x[12011] 1.000000 
x[19396] 0.500000 
x[25403] 0.500000 
x[3447] 1.000000 
x[32032] 1.000000 
x[6136] 1.000000 
x[11331] 0.500000 
x[32477] 0.500000 
x[18190] 0.500000 
x[7474] 1.000000 
x[27762] 0.500000 
x[32352] 0.500000 
x[2977] 0.500000 
x[10384] 0.500000 
x[16192] 0.500000 
x[33395] 1.000000 
x[10589] 0.500000 
x[492] 0.500000 
x[1595] 0.500000 
x[10195] 0.500000 
